$ nonogram instance, generated by: nonogen 10 5 0.38 0.9 0.4 3634698906
$ .....
$ ..#..
$ ..##.
$ ..#..
$ ..###
$ .##.#
$ ..##.
$ ....#
$ ###..
$ .#.##
letting m be 10
letting n be 5
letting rowRules be [
sequence(),
sequence(1),
sequence(2),
sequence(1),
sequence(3),
sequence(2,1),
sequence(2),
sequence(1),
sequence(3),
sequence(1,2)]
letting colRules be [
sequence(1),
sequence(1,2),
sequence(6,1),
sequence(1,1,1,1),
sequence(2,1,1)]
letting r be 4
